c nIsolatedPIs 0
c maxPI 32
p cnf 223 574
c gate 33 -2 18 0
-2 -33 0
18 -33 0
2 -18 33 0
c gate 34 -1 17 0
-1 -34 0
17 -34 0
1 -17 34 0
c gate 35 -33 -34 0
-33 -35 0
-34 -35 0
33 34 35 0
c gate 36 2 -18 0
2 -36 0
-18 -36 0
-2 18 36 0
c gate 37 3 -19 0
3 -37 0
-19 -37 0
-3 19 37 0
c gate 38 -36 -37 0
-36 -38 0
-37 -38 0
36 37 38 0
c gate 39 -35 38 0
-35 -39 0
38 -39 0
35 -38 39 0
c gate 40 -4 20 0
-4 -40 0
20 -40 0
4 -20 40 0
c gate 41 -3 19 0
-3 -41 0
19 -41 0
3 -19 41 0
c gate 42 -40 -41 0
-40 -42 0
-41 -42 0
40 41 42 0
c gate 43 -39 42 0
-39 -43 0
42 -43 0
39 -42 43 0
c gate 44 5 -21 0
5 -44 0
-21 -44 0
-5 21 44 0
c gate 45 4 -20 0
4 -45 0
-20 -45 0
-4 20 45 0
c gate 46 -44 -45 0
-44 -46 0
-45 -46 0
44 45 46 0
c gate 47 -43 46 0
-43 -47 0
46 -47 0
43 -46 47 0
c gate 48 6 -22 0
6 -48 0
-22 -48 0
-6 22 48 0
c gate 49 -6 22 0
-6 -49 0
22 -49 0
6 -22 49 0
c gate 50 -48 -49 0
-48 -50 0
-49 -50 0
48 49 50 0
c gate 51 -5 21 0
-5 -51 0
21 -51 0
5 -21 51 0
c gate 52 50 -51 0
50 -52 0
-51 -52 0
-50 51 52 0
c gate 53 -47 52 0
-47 -53 0
52 -53 0
47 -52 53 0
c gate 54 -14 -30 0
-14 -54 0
-30 -54 0
14 30 54 0
c gate 55 14 30 0
14 -55 0
30 -55 0
-14 -30 55 0
c gate 56 -54 -55 0
-54 -56 0
-55 -56 0
54 55 56 0
c gate 57 12 28 0
12 -57 0
28 -57 0
-12 -28 57 0
c gate 58 13 29 0
13 -58 0
29 -58 0
-13 -29 58 0
c gate 59 -57 -58 0
-57 -59 0
-58 -59 0
57 58 59 0
c gate 60 56 -59 0
56 -60 0
-59 -60 0
-56 59 60 0
c gate 61 -56 59 0
-56 -61 0
59 -61 0
56 -59 61 0
c gate 62 -60 -61 0
-60 -62 0
-61 -62 0
60 61 62 0
c gate 63 -13 -29 0
-13 -63 0
-29 -63 0
13 29 63 0
c gate 64 -12 -28 0
-12 -64 0
-28 -64 0
12 28 64 0
c gate 65 -57 -64 0
-57 -65 0
-64 -65 0
57 64 65 0
c gate 66 -11 -27 0
-11 -66 0
-27 -66 0
11 27 66 0
c gate 67 -10 -26 0
-10 -67 0
-26 -67 0
10 26 67 0
c gate 68 9 25 0
9 -68 0
25 -68 0
-9 -25 68 0
c gate 69 8 24 0
8 -69 0
24 -69 0
-8 -24 69 0
c gate 70 -7 -23 0
-7 -70 0
-23 -70 0
7 23 70 0
c gate 71 -69 70 0
-69 -71 0
70 -71 0
69 -70 71 0
c gate 72 -9 -25 0
-9 -72 0
-25 -72 0
9 25 72 0
c gate 73 -8 -24 0
-8 -73 0
-24 -73 0
8 24 73 0
c gate 74 -72 -73 0
-72 -74 0
-73 -74 0
72 73 74 0
c gate 75 -71 74 0
-71 -75 0
74 -75 0
71 -74 75 0
c gate 76 2 18 0
2 -76 0
18 -76 0
-2 -18 76 0
c gate 77 1 17 0
1 -77 0
17 -77 0
-1 -17 77 0
c gate 78 -76 -77 0
-76 -78 0
-77 -78 0
76 77 78 0
c gate 79 -2 -18 0
-2 -79 0
-18 -79 0
2 18 79 0
c gate 80 -3 -19 0
-3 -80 0
-19 -80 0
3 19 80 0
c gate 81 -79 -80 0
-79 -81 0
-80 -81 0
79 80 81 0
c gate 82 -78 81 0
-78 -82 0
81 -82 0
78 -81 82 0
c gate 83 4 20 0
4 -83 0
20 -83 0
-4 -20 83 0
c gate 84 3 19 0
3 -84 0
19 -84 0
-3 -19 84 0
c gate 85 -83 -84 0
-83 -85 0
-84 -85 0
83 84 85 0
c gate 86 -82 85 0
-82 -86 0
85 -86 0
82 -85 86 0
c gate 87 -5 -21 0
-5 -87 0
-21 -87 0
5 21 87 0
c gate 88 -4 -20 0
-4 -88 0
-20 -88 0
4 20 88 0
c gate 89 -87 -88 0
-87 -89 0
-88 -89 0
87 88 89 0
c gate 90 -86 89 0
-86 -90 0
89 -90 0
86 -89 90 0
c gate 91 5 21 0
5 -91 0
21 -91 0
-5 -21 91 0
c gate 92 -50 -91 0
-50 -92 0
-91 -92 0
50 91 92 0
c gate 93 -90 92 0
-90 -93 0
92 -93 0
90 -92 93 0
c gate 94 -6 -22 0
-6 -94 0
-22 -94 0
6 22 94 0
c gate 95 -93 -94 0
-93 -95 0
-94 -95 0
93 94 95 0
c gate 96 -69 -73 0
-69 -96 0
-73 -96 0
69 73 96 0
c gate 97 -7 23 0
-7 -97 0
23 -97 0
7 -23 97 0
c gate 98 7 -23 0
7 -98 0
-23 -98 0
-7 23 98 0
c gate 99 -97 -98 0
-97 -99 0
-98 -99 0
97 98 99 0
c gate 100 96 -99 0
96 -100 0
-99 -100 0
-96 99 100 0
c gate 101 -95 100 0
-95 -101 0
100 -101 0
95 -100 101 0
c gate 102 75 -101 0
75 -102 0
-101 -102 0
-75 101 102 0
c gate 103 -68 -102 0
-68 -103 0
-102 -103 0
68 102 103 0
c gate 104 -67 -103 0
-67 -104 0
-103 -104 0
67 103 104 0
c gate 105 11 27 0
11 -105 0
27 -105 0
-11 -27 105 0
c gate 106 10 26 0
10 -106 0
26 -106 0
-10 -26 106 0
c gate 107 -105 -106 0
-105 -107 0
-106 -107 0
105 106 107 0
c gate 108 -104 107 0
-104 -108 0
107 -108 0
104 -107 108 0
c gate 109 -66 -108 0
-66 -109 0
-108 -109 0
66 108 109 0
c gate 110 65 109 0
65 -110 0
109 -110 0
-65 -109 110 0
c gate 111 59 -110 0
59 -111 0
-110 -111 0
-59 110 111 0
c gate 112 -63 -111 0
-63 -112 0
-111 -112 0
63 111 112 0
c gate 113 56 -112 0
56 -113 0
-112 -113 0
-56 112 113 0
c gate 114 -56 112 0
-56 -114 0
112 -114 0
56 -112 114 0
c gate 115 -113 -114 0
-113 -115 0
-114 -115 0
113 114 115 0
c gate 116 -62 -115 0
-62 -116 0
-115 -116 0
62 115 116 0
c gate 117 62 115 0
62 -117 0
115 -117 0
-62 -115 117 0
c gate 118 -116 -117 0
-116 -118 0
-117 -118 0
116 117 118 0
c gate 119 -68 -106 0
-68 -119 0
-106 -119 0
68 106 119 0
c gate 120 -75 119 0
-75 -120 0
119 -120 0
75 -119 120 0
c gate 121 -66 -67 0
-66 -121 0
-67 -121 0
66 67 121 0
c gate 122 -120 121 0
-120 -122 0
121 -122 0
120 -121 122 0
c gate 123 -105 -122 0
-105 -123 0
-122 -123 0
105 122 123 0
c gate 124 -65 109 0
-65 -124 0
109 -124 0
65 -109 124 0
c gate 125 123 -124 0
123 -125 0
-124 -125 0
-123 124 125 0
c gate 126 65 -109 0
65 -126 0
-109 -126 0
-65 109 126 0
c gate 127 -123 -126 0
-123 -127 0
-126 -127 0
123 126 127 0
c gate 128 -125 -127 0
-125 -128 0
-127 -128 0
125 127 128 0
c gate 129 118 128 0
118 -129 0
128 -129 0
-118 -128 129 0
c gate 130 15 31 0
15 -130 0
31 -130 0
-15 -31 130 0
c gate 131 -15 -31 0
-15 -131 0
-31 -131 0
15 31 131 0
c gate 132 -130 -131 0
-130 -132 0
-131 -132 0
130 131 132 0
c gate 133 -55 -60 0
-55 -133 0
-60 -133 0
55 60 133 0
c gate 134 132 -133 0
132 -134 0
-133 -134 0
-132 133 134 0
c gate 135 -130 -134 0
-130 -135 0
-134 -135 0
130 134 135 0
c gate 136 -16 -32 0
-16 -136 0
-32 -136 0
16 32 136 0
c gate 137 16 32 0
16 -137 0
32 -137 0
-16 -32 137 0
c gate 138 -136 -137 0
-136 -138 0
-137 -138 0
136 137 138 0
c gate 139 135 138 0
135 -139 0
138 -139 0
-135 -138 139 0
c gate 140 -135 -138 0
-135 -140 0
-138 -140 0
135 138 140 0
c gate 141 -139 -140 0
-139 -141 0
-140 -141 0
139 140 141 0
c gate 142 -54 -113 0
-54 -142 0
-113 -142 0
54 113 142 0
c gate 143 132 -142 0
132 -143 0
-142 -143 0
-132 142 143 0
c gate 144 -131 -143 0
-131 -144 0
-143 -144 0
131 143 144 0
c gate 145 -138 144 0
-138 -145 0
144 -145 0
138 -144 145 0
c gate 146 138 -144 0
138 -146 0
-144 -146 0
-138 144 146 0
c gate 147 -145 -146 0
-145 -147 0
-146 -147 0
145 146 147 0
c gate 148 -141 147 0
-141 -148 0
147 -148 0
141 -147 148 0
c gate 149 141 -147 0
141 -149 0
-147 -149 0
-141 147 149 0
c gate 150 -132 133 0
-132 -150 0
133 -150 0
132 -133 150 0
c gate 151 -134 -150 0
-134 -151 0
-150 -151 0
134 150 151 0
c gate 152 -132 142 0
-132 -152 0
142 -152 0
132 -142 152 0
c gate 153 -143 -152 0
-143 -153 0
-152 -153 0
143 152 153 0
c gate 154 -151 -153 0
-151 -154 0
-153 -154 0
151 153 154 0
c gate 155 151 153 0
151 -155 0
153 -155 0
-151 -153 155 0
c gate 156 -58 -63 0
-58 -156 0
-63 -156 0
58 63 156 0
c gate 157 110 -156 0
110 -157 0
-156 -157 0
-110 156 157 0
c gate 158 -116 -157 0
-116 -158 0
-157 -158 0
116 157 158 0
c gate 159 -155 -158 0
-155 -159 0
-158 -159 0
155 158 159 0
c gate 160 -154 -159 0
-154 -160 0
-159 -160 0
154 159 160 0
c gate 161 -149 160 0
-149 -161 0
160 -161 0
149 -160 161 0
c gate 162 -148 -161 0
-148 -162 0
-161 -162 0
148 161 162 0
c gate 163 -129 -162 0
-129 -163 0
-162 -163 0
129 162 163 0
c gate 164 -101 -110 0
-101 -164 0
-110 -164 0
101 110 164 0
c gate 165 118 164 0
118 -165 0
164 -165 0
-118 -164 165 0
c gate 166 -163 -165 0
-163 -166 0
-165 -166 0
163 165 166 0
c gate 167 -66 -105 0
-66 -167 0
-105 -167 0
66 105 167 0
c gate 168 10 -26 0
10 -168 0
-26 -168 0
-10 26 168 0
c gate 169 8 -24 0
8 -169 0
-24 -169 0
-8 24 169 0
c gate 170 -68 -72 0
-68 -170 0
-72 -170 0
68 72 170 0
c gate 171 -169 -170 0
-169 -171 0
-170 -171 0
169 170 171 0
c gate 172 -10 26 0
-10 -172 0
26 -172 0
10 -26 172 0
c gate 173 -9 25 0
-9 -173 0
25 -173 0
9 -25 173 0
c gate 174 -172 -173 0
-172 -174 0
-173 -174 0
172 173 174 0
c gate 175 -171 174 0
-171 -175 0
174 -175 0
171 -174 175 0
c gate 176 -168 -175 0
-168 -176 0
-175 -176 0
168 175 176 0
c gate 177 -48 -98 0
-48 -177 0
-98 -177 0
48 98 177 0
c gate 178 -53 177 0
-53 -178 0
177 -178 0
53 -177 178 0
c gate 179 -97 -178 0
-97 -179 0
-178 -179 0
97 178 179 0
c gate 180 -96 179 0
-96 -180 0
179 -180 0
96 -179 180 0
c gate 181 174 180 0
174 -181 0
180 -181 0
-174 -180 181 0
c gate 182 176 -181 0
176 -182 0
-181 -182 0
-176 181 182 0
c gate 183 -167 182 0
-167 -183 0
182 -183 0
167 -182 183 0
c gate 184 167 -182 0
167 -184 0
-182 -184 0
-167 182 184 0
c gate 185 -183 -184 0
-183 -185 0
-184 -185 0
183 184 185 0
c gate 186 176 -185 0
176 -186 0
-185 -186 0
-176 185 186 0
c gate 187 139 144 0
139 -187 0
144 -187 0
-139 -144 187 0
c gate 188 -53 -187 0
-53 -188 0
-187 -188 0
53 187 188 0
c gate 189 166 188 0
166 -189 0
188 -189 0
-166 -188 189 0
c gate 190 53 -99 0
53 -190 0
-99 -190 0
-53 99 190 0
c gate 191 -53 138 0
-53 -191 0
138 -191 0
53 -138 191 0
c gate 192 149 191 0
149 -192 0
191 -192 0
-149 -191 192 0
c gate 193 -190 -192 0
-190 -193 0
-192 -193 0
190 192 193 0
c gate 194 -189 193 0
-189 -194 0
193 -194 0
189 -193 194 0
c gate 195 -180 -194 0
-180 -195 0
-194 -195 0
180 194 195 0
c gate 196 96 177 0
96 -196 0
177 -196 0
-96 -177 196 0
c gate 197 179 196 0
179 -197 0
196 -197 0
-179 -196 197 0
c gate 198 -180 -197 0
-180 -198 0
-197 -198 0
180 197 198 0
c gate 199 -67 -106 0
-67 -199 0
-106 -199 0
67 106 199 0
c gate 200 -170 -199 0
-170 -200 0
-199 -200 0
170 199 200 0
c gate 201 -197 200 0
-197 -201 0
200 -201 0
197 -200 201 0
c gate 202 -198 -201 0
-198 -202 0
-201 -202 0
198 201 202 0
c gate 203 -195 -202 0
-195 -203 0
-202 -203 0
195 202 203 0
c gate 204 -186 203 0
-186 -204 0
203 -204 0
186 -203 204 0
c gate 205 -183 -204 0
-183 -205 0
-204 -205 0
183 204 205 0
c gate 206 -56 -132 0
-56 -206 0
-132 -206 0
56 132 206 0
c gate 207 -65 -138 0
-65 -207 0
-138 -207 0
65 138 207 0
c gate 208 -156 207 0
-156 -208 0
207 -208 0
156 -207 208 0
c gate 209 206 208 0
206 -209 0
208 -209 0
-206 -208 209 0
c gate 210 183 209 0
183 -210 0
209 -210 0
-183 -209 210 0
c gate 211 -205 -210 0
-205 -211 0
-210 -211 0
205 210 211 0
c gate 212 -166 211 0
-166 -212 0
211 -212 0
166 -211 212 0
c gate 213 94 99 0
94 -213 0
99 -213 0
-94 -99 213 0
c gate 214 -95 -213 0
-95 -214 0
-213 -214 0
95 213 214 0
c gate 215 -128 214 0
-128 -215 0
214 -215 0
128 -214 215 0
c gate 216 -110 -215 0
-110 -216 0
-215 -216 0
110 215 216 0
c gate 217 118 216 0
118 -217 0
216 -217 0
-118 -216 217 0
c gate 218 -162 -217 0
-162 -218 0
-217 -218 0
162 217 218 0
c gate 219 -211 -218 0
-211 -219 0
-218 -219 0
211 218 219 0
c gate 220 -212 -219 0
-212 -220 0
-219 -220 0
212 219 220 0
c gate 221 -53 -220 0
-53 -221 0
-220 -221 0
53 220 221 0
c gate 222 53 -211 0
53 -222 0
-211 -222 0
-53 211 222 0
c gate 223 -221 -222 0
-221 -223 0
-222 -223 0
221 222 223 0
c PO
223 0
